p tw 40 81
e 0 9
e 0 10
e 0 14
e 0 20
e 0 21
e 0 27
e 0 36
e 1 19
e 1 34
e 1 35
e 2 17
e 2 26
e 2 38
e 3 13
e 3 14
e 3 15
e 3 21
e 3 30
e 4 5
e 4 6
e 4 23
e 4 34
e 4 36
e 5 24
e 6 8
e 6 25
e 6 26
e 6 36
e 7 13
e 7 15
e 7 18
e 7 36
e 7 37
e 8 12
e 8 27
e 9 16
e 9 18
e 9 20
e 9 21
e 9 30
e 10 15
e 10 29
e 10 39
e 11 15
e 11 25
e 12 15
e 12 16
e 12 38
e 13 19
e 14 24
e 14 27
e 15 39
e 16 27
e 17 22
e 18 33
e 18 39
e 19 30
e 20 33
e 22 27
e 22 29
e 22 33
e 23 26
e 24 26
e 24 38
e 25 27
e 25 33
e 25 34
e 25 36
e 25 39
e 26 27
e 26 38
e 27 33
e 28 39
e 29 30
e 29 35
e 30 33
e 30 35
e 30 37
e 30 38
e 35 39
e 36 39
